python/data/quasigroup_completion/quasigroup6.txt
10
. . 1 2 3 4 . . . . 
. 1 2 3 . . 4 . . . 
1 2 3 . . . . 4 . . 
2 3 . . . . . . 4 . 
3 . . . . . . . . 4 
5 6 . . . . . . . . 
. 5 6 . . . . . . . 
. . 5 6 . . . . . . 
. . . 5 6 . . . . . 
. . . . 5 6 . . . . 
% Quasigroup completion problem. 
% This problem file is used by 
% http://www.hakank.org/comet/quasigroup_completion.co
% 
% Problem from http://www.cs.cornell.edu/gomes/QUASIdemo.html
% (n = 10)
% Pattern #2. 
% There are _many_ solutions to this problem.
